c clasp version 2.1.1
c Reading from p76.cnf
c Solving...
s SATISFIABLE

c Models        : 1+    
c Time          : 1.823s (Solving: 0.97s 1st Model: 0.97s Unsat: 0.00s)
c CPU Time      : 1.810s
c Choices       : 52360
c Conflicts     : 3481
c Restarts      : 10     (Average: 348.10 Last: 511)

c Variables     : 218031 (Eliminated: 68540 Frozen:    0)
c Constraints   : 235445 (Binary: 65.8% Ternary: 33.2% Other:  0.9%)
c Lemmas        : 3481   (Binary:  0.3% Ternary:  0.9% Other: 98.9%)
c   Conflict    : 3481   (Average Length: 33.8) 
c   Loop        : 0      (Average Length: 0.0) 
c   Other       : 0      (Average Length: 0.0)
c   Deleted     : 0     
